p cnf 20 15
-7 6 20 -13 -17 3 -11 -19 -8 10 0
-5 -2 -9 11 -10 -13 8 -6 18 12 0
14 6 8 -3 -12 10 -11 15 19 18 0
19 8 15 -10 -5 -1 -16 -12 2 -14 0
-15 12 -2 13 1 20 -4 18 -9 -7 0
16 -2 -19 7 -11 18 -3 -15 -9 10 0
1 -7 20 14 -10 -18 -3 -4 -9 -2 0
18 14 -10 -12 17 -6 -19 13 -16 3 0
-3 -12 -16 9 -6 -17 -19 10 4 8 0
-4 -14 -20 -17 -19 -1 10 11 9 16 0
-3 7 -16 13 -10 8 -1 17 -18 -5 0
1 -20 -8 3 19 18 7 16 11 -9 0
-11 -18 1 -9 -3 14 -20 8 -17 -6 0
16 14 7 -4 -20 3 9 -18 1 6 0
1 11 -14 -17 8 10 9 -20 -2 16 0
